n = 90;
capacity = 100;
size = [78, 77, 76, 76, 76, 76, 75, 75, 74, 73, 73, 68, 68, 67, 66, 65, 65, 65, 65, 65, 64, 64, 63, 62, 62, 62, 61, 61, 61, 60, 59, 59, 59, 58, 58, 58, 56, 56, 55, 53, 52, 51, 50, 50, 50, 50, 49, 47, 47, 46, 46, 44, 44, 43, 43, 40, 40, 39, 39, 38, 38, 37, 36, 35, 35, 33, 33, 31, 30, 30, 30, 30, 29, 28, 27, 26, 26, 26, 25, 25, 25, 25, 24, 24, 23, 22, 22, 21, 21, 20];
